9
0 9 522 804 593 333 363 420 224
9 0 612 25 235 9 708 36 109
522 612 0 313 403 525 40 133 458
804 25 313 0 14 51 368 500 96
593 235 403 14 0 193 422 28 180
333 9 525 51 193 0 106 109 765
363 708 40 368 422 106 0 9 789
420 36 133 500 28 109 9 0 74
224 109 458 96 180 765 789 74 0